N_J = 28;
N_H = 22;
N_D = 1;
y = 6;
a = 1;
b = 1;
D = [
[0, 0, 0, 0, 0, 0, 0, 0, 0, 0, 0, 0, 0, 0, 0, 0, 0, 0, 0, 0, 0, 0, 0],
[4, 1, 5, 1, 0, 0, 0, 1, 3, 2, 4, 4, 0, 4, 0, 5, 5, 2, 2, 4, 0, 3, 0],
[4, 1, 5, 1, 0, 0, 0, 1, 3, 2, 4, 4, 0, 4, 0, 5, 5, 2, 2, 4, 0, 3, 0],
[4, 1, 5, 1, 0, 0, 0, 1, 3, 2, 4, 4, 0, 4, 0, 5, 5, 2, 2, 4, 0, 3, 0],
[4, 1, 5, 1, 0, 0, 0, 1, 3, 2, 4, 4, 0, 4, 0, 5, 5, 2, 2, 4, 0, 3, 0],
[4, 1, 5, 1, 0, 0, 0, 1, 3, 2, 4, 4, 0, 4, 0, 5, 5, 2, 2, 4, 0, 3, 0],
[4, 1, 5, 1, 0, 0, 0, 1, 3, 2, 4, 4, 0, 4, 0, 5, 5, 2, 2, 4, 0, 3, 0],
[4, 1, 5, 1, 0, 0, 0, 1, 3, 2, 4, 4, 0, 4, 0, 5, 5, 2, 2, 4, 0, 3, 0],
[4, 1, 5, 1, 0, 0, 0, 1, 3, 2, 4, 4, 0, 4, 0, 5, 5, 2, 2, 4, 0, 3, 0],
[4, 1, 5, 1, 0, 0, 0, 1, 3, 2, 4, 4, 0, 4, 0, 5, 5, 2, 2, 4, 0, 3, 0],
[4, 1, 5, 1, 0, 0, 0, 1, 3, 2, 4, 4, 0, 4, 0, 5, 5, 2, 2, 4, 0, 3, 0],
[4, 1, 5, 1, 0, 0, 0, 1, 3, 2, 4, 4, 0, 4, 0, 5, 5, 2, 2, 4, 0, 3, 0],
[4, 1, 5, 1, 0, 0, 0, 1, 3, 2, 4, 4, 0, 4, 0, 5, 5, 2, 2, 4, 0, 3, 0],
[4, 1, 5, 1, 0, 0, 0, 1, 3, 2, 4, 4, 0, 4, 0, 5, 5, 2, 2, 4, 0, 3, 0],
[4, 1, 5, 1, 0, 0, 0, 1, 3, 2, 4, 4, 0, 4, 0, 5, 5, 2, 2, 4, 0, 3, 0],
[4, 1, 5, 1, 0, 0, 0, 1, 3, 2, 4, 4, 0, 4, 0, 5, 5, 2, 2, 4, 0, 3, 0],
[4, 1, 5, 1, 0, 0, 0, 1, 3, 2, 4, 4, 0, 4, 0, 5, 5, 2, 2, 4, 0, 3, 0],
[4, 1, 5, 1, 0, 0, 0, 1, 3, 2, 4, 4, 0, 4, 0, 5, 5, 2, 2, 4, 0, 3, 0],
[4, 1, 5, 1, 0, 0, 0, 1, 3, 2, 4, 4, 0, 4, 0, 5, 5, 2, 2, 4, 0, 3, 0],
[4, 1, 5, 1, 0, 0, 0, 1, 3, 2, 4, 4, 0, 4, 0, 5, 5, 2, 2, 4, 0, 3, 0],
[4, 1, 5, 1, 0, 0, 0, 1, 3, 2, 4, 4, 0, 4, 0, 5, 5, 2, 2, 4, 0, 3, 0],
[4, 1, 5, 1, 0, 0, 0, 1, 3, 2, 4, 4, 0, 4, 0, 5, 5, 2, 2, 4, 0, 3, 0],
[4, 1, 5, 1, 0, 0, 0, 1, 3, 2, 4, 4, 0, 4, 0, 5, 5, 2, 2, 4, 0, 3, 0],
[4, 1, 5, 1, 0, 0, 0, 1, 3, 2, 4, 4, 0, 4, 0, 5, 5, 2, 2, 4, 0, 3, 0],
[4, 1, 5, 1, 0, 0, 0, 1, 3, 2, 4, 4, 0, 4, 0, 5, 5, 2, 2, 4, 0, 3, 0],
[4, 1, 5, 1, 0, 0, 0, 1, 3, 2, 4, 4, 0, 4, 0, 5, 5, 2, 2, 4, 0, 3, 0],
[4, 1, 5, 1, 0, 0, 0, 1, 3, 2, 4, 4, 0, 4, 0, 5, 5, 2, 2, 4, 0, 3, 0],
[4, 1, 5, 1, 0, 0, 0, 1, 3, 2, 4, 4, 0, 4, 0, 5, 5, 2, 2, 4, 0, 3, 0],
[4, 1, 5, 1, 0, 0, 0, 1, 3, 2, 4, 4, 0, 4, 0, 5, 5, 2, 2, 4, 0, 3, 0]
];
M = 30;
I = [
[0, 0, 0, 0, 0, 0, 0, 0, 0, 0, 0, 0, 0, 0, 0, 0, 0, 0, 0, 0, 0, 0, 0],
[1, 2, 0, 4, 6, 0, 2, 3, 1, 2, 3, 5, 3, 3, 3, 4, 1, 1, 2, 4, 6, 6, 0],
[1, 2, 0, 4, 6, 0, 2, 3, 1, 2, 3, 5, 3, 3, 3, 4, 1, 1, 2, 4, 6, 6, 0],
[1, 2, 0, 4, 6, 0, 2, 3, 1, 2, 3, 5, 3, 3, 3, 4, 1, 1, 2, 4, 6, 6, 0],
[1, 2, 0, 4, 6, 0, 2, 3, 1, 2, 3, 5, 3, 3, 3, 4, 1, 1, 2, 4, 6, 6, 0],
[1, 2, 0, 4, 6, 0, 2, 3, 1, 2, 3, 5, 3, 3, 3, 4, 1, 1, 2, 4, 6, 6, 0],
[1, 2, 0, 4, 6, 0, 2, 3, 1, 2, 3, 5, 3, 3, 3, 4, 1, 1, 2, 4, 6, 6, 0],
[1, 2, 0, 4, 6, 0, 2, 3, 1, 2, 3, 5, 3, 3, 3, 4, 1, 1, 2, 4, 6, 6, 0],
[1, 2, 0, 4, 6, 0, 2, 3, 1, 2, 3, 5, 3, 3, 3, 4, 1, 1, 2, 4, 6, 6, 0],
[1, 2, 0, 4, 6, 0, 2, 3, 1, 2, 3, 5, 3, 3, 3, 4, 1, 1, 2, 4, 6, 6, 0],
[1, 2, 0, 4, 6, 0, 2, 3, 1, 2, 3, 5, 3, 3, 3, 4, 1, 1, 2, 4, 6, 6, 0],
[1, 2, 0, 4, 6, 0, 2, 3, 1, 2, 3, 5, 3, 3, 3, 4, 1, 1, 2, 4, 6, 6, 0],
[1, 2, 0, 4, 6, 0, 2, 3, 1, 2, 3, 5, 3, 3, 3, 4, 1, 1, 2, 4, 6, 6, 0],
[1, 2, 0, 4, 6, 0, 2, 3, 1, 2, 3, 5, 3, 3, 3, 4, 1, 1, 2, 4, 6, 6, 0],
[1, 2, 0, 4, 6, 0, 2, 3, 1, 2, 3, 5, 3, 3, 3, 4, 1, 1, 2, 4, 6, 6, 0],
[1, 2, 0, 4, 6, 0, 2, 3, 1, 2, 3, 5, 3, 3, 3, 4, 1, 1, 2, 4, 6, 6, 0],
[1, 2, 0, 4, 6, 0, 2, 3, 1, 2, 3, 5, 3, 3, 3, 4, 1, 1, 2, 4, 6, 6, 0],
[1, 2, 0, 4, 6, 0, 2, 3, 1, 2, 3, 5, 3, 3, 3, 4, 1, 1, 2, 4, 6, 6, 0],
[1, 2, 0, 4, 6, 0, 2, 3, 1, 2, 3, 5, 3, 3, 3, 4, 1, 1, 2, 4, 6, 6, 0],
[1, 2, 0, 4, 6, 0, 2, 3, 1, 2, 3, 5, 3, 3, 3, 4, 1, 1, 2, 4, 6, 6, 0],
[1, 2, 0, 4, 6, 0, 2, 3, 1, 2, 3, 5, 3, 3, 3, 4, 1, 1, 2, 4, 6, 6, 0],
[1, 2, 0, 4, 6, 0, 2, 3, 1, 2, 3, 5, 3, 3, 3, 4, 1, 1, 2, 4, 6, 6, 0],
[1, 2, 0, 4, 6, 0, 2, 3, 1, 2, 3, 5, 3, 3, 3, 4, 1, 1, 2, 4, 6, 6, 0],
[1, 2, 0, 4, 6, 0, 2, 3, 1, 2, 3, 5, 3, 3, 3, 4, 1, 1, 2, 4, 6, 6, 0],
[1, 2, 0, 4, 6, 0, 2, 3, 1, 2, 3, 5, 3, 3, 3, 4, 1, 1, 2, 4, 6, 6, 0],
[1, 2, 0, 4, 6, 0, 2, 3, 1, 2, 3, 5, 3, 3, 3, 4, 1, 1, 2, 4, 6, 6, 0],
[1, 2, 0, 4, 6, 0, 2, 3, 1, 2, 3, 5, 3, 3, 3, 4, 1, 1, 2, 4, 6, 6, 0],
[1, 2, 0, 4, 6, 0, 2, 3, 1, 2, 3, 5, 3, 3, 3, 4, 1, 1, 2, 4, 6, 6, 0],
[1, 2, 0, 4, 6, 0, 2, 3, 1, 2, 3, 5, 3, 3, 3, 4, 1, 1, 2, 4, 6, 6, 0]
];
F = [
[0, 1, 0, 0, 0, 0, 0, 0, 0, 1, 0, 1, 0, 0, 0, 0, 1, 0, 0, 1, 0, 0, 0],
[0, 1, 0, 0, 0, 0, 0, 0, 0, 1, 0, 1, 0, 0, 0, 0, 1, 0, 0, 1, 0, 0, 0],
[0, 1, 0, 0, 0, 0, 0, 0, 0, 1, 0, 1, 0, 0, 0, 0, 1, 0, 0, 1, 0, 0, 0],
[0, 1, 0, 0, 0, 0, 0, 0, 0, 1, 0, 1, 0, 0, 0, 0, 1, 0, 0, 1, 0, 0, 0],
[0, 1, 0, 0, 0, 0, 0, 0, 0, 1, 0, 1, 0, 0, 0, 0, 1, 0, 0, 1, 0, 0, 0],
[0, 1, 0, 0, 0, 0, 0, 0, 0, 1, 0, 1, 0, 0, 0, 0, 1, 0, 0, 1, 0, 0, 0],
[0, 1, 0, 0, 0, 0, 0, 0, 0, 1, 0, 1, 0, 0, 0, 0, 1, 0, 0, 1, 0, 0, 0],
[0, 1, 0, 0, 0, 0, 0, 0, 0, 1, 0, 1, 0, 0, 0, 0, 1, 0, 0, 1, 0, 0, 0],
[0, 1, 0, 0, 0, 0, 0, 0, 0, 1, 0, 1, 0, 0, 0, 0, 1, 0, 0, 1, 0, 0, 0],
[0, 1, 0, 0, 0, 0, 0, 0, 0, 1, 0, 1, 0, 0, 0, 0, 1, 0, 0, 1, 0, 0, 0],
[0, 1, 0, 0, 0, 0, 0, 0, 0, 1, 0, 1, 0, 0, 0, 0, 1, 0, 0, 1, 0, 0, 0],
[0, 1, 0, 0, 0, 0, 0, 0, 0, 1, 0, 1, 0, 0, 0, 0, 1, 0, 0, 1, 0, 0, 0],
[0, 1, 0, 0, 0, 0, 0, 0, 0, 1, 0, 1, 0, 0, 0, 0, 1, 0, 0, 1, 0, 0, 0],
[0, 1, 0, 0, 0, 0, 0, 0, 0, 1, 0, 1, 0, 0, 0, 0, 1, 0, 0, 1, 0, 0, 0],
[0, 1, 0, 0, 0, 0, 0, 0, 0, 1, 0, 1, 0, 0, 0, 0, 1, 0, 0, 1, 0, 0, 0],
[0, 1, 0, 0, 0, 0, 0, 0, 0, 1, 0, 1, 0, 0, 0, 0, 1, 0, 0, 1, 0, 0, 0],
[0, 1, 0, 0, 0, 0, 0, 0, 0, 1, 0, 1, 0, 0, 0, 0, 1, 0, 0, 1, 0, 0, 0],
[0, 1, 0, 0, 0, 0, 0, 0, 0, 1, 0, 1, 0, 0, 0, 0, 1, 0, 0, 1, 0, 0, 0],
[0, 1, 0, 0, 0, 0, 0, 0, 0, 1, 0, 1, 0, 0, 0, 0, 1, 0, 0, 1, 0, 0, 0],
[0, 1, 0, 0, 0, 0, 0, 0, 0, 1, 0, 1, 0, 0, 0, 0, 1, 0, 0, 1, 0, 0, 0],
[0, 1, 0, 0, 0, 0, 0, 0, 0, 1, 0, 1, 0, 0, 0, 0, 1, 0, 0, 1, 0, 0, 0],
[0, 1, 0, 0, 0, 0, 0, 0, 0, 1, 0, 1, 0, 0, 0, 0, 1, 0, 0, 1, 0, 0, 0],
[0, 1, 0, 0, 0, 0, 0, 0, 0, 1, 0, 1, 0, 0, 0, 0, 1, 0, 0, 1, 0, 0, 0],
[0, 1, 0, 0, 0, 0, 0, 0, 0, 1, 0, 1, 0, 0, 0, 0, 1, 0, 0, 1, 0, 0, 0],
[0, 1, 0, 0, 0, 0, 0, 0, 0, 1, 0, 1, 0, 0, 0, 0, 1, 0, 0, 1, 0, 0, 0],
[0, 1, 0, 0, 0, 0, 0, 0, 0, 1, 0, 1, 0, 0, 0, 0, 1, 0, 0, 1, 0, 0, 0],
[0, 1, 0, 0, 0, 0, 0, 0, 0, 1, 0, 1, 0, 0, 0, 0, 1, 0, 0, 1, 0, 0, 0],
[0, 1, 0, 0, 0, 0, 0, 0, 0, 1, 0, 1, 0, 0, 0, 0, 1, 0, 0, 1, 0, 0, 0],
[0, 1, 0, 0, 0, 0, 0, 0, 0, 1, 0, 1, 0, 0, 0, 0, 1, 0, 0, 1, 0, 0, 0]
];
N_P = 17;
n = [3, 3, 1, 2, 3, 1, 2, 1, 1, 1, 2, 1, 2, 2, 1, 3, 1];
p_C = [0, 3, 2, 3, 2, 0, 1, 1, 1, 0, 2, 1, 3, 0, 3, 0, 3];
p_D = [2, 3, 0, 1, 2, 0, 2, 3, 0, 2, 0, 0, 3, 0, 0, 1, 1];
Delta = [
[0, 3, 3],
[0, 2, 2],
[0],
[0, 3],
[0, 1, 1],
[0],
[0, 1],
[0],
[0],
[0],
[0, 2],
[0],
[0, 1],
[0, 2],
[0],
[0, 2, 1],
[0]
];
e_A = [
[0, 1, 0],
[0, 0, 1],
[1],
[0, 1],
[1, 1, 0],
[0],
[0, 0],
[1],
[1],
[0],
[0, 0],
[0],
[0, 1],
[1, 0],
[0],
[0, 0, 0],
[0]
];
e_C = [
[1, 0, 1],
[1, 0, 1],
[1],
[1, 0],
[0, 1, 0],
[1],
[1, 1],
[0],
[1],
[0],
[1, 0],
[1],
[1, 0],
[1, 0],
[1],
[1, 1, 1],
[1]
];
